(set-logic BV) (define-fun origCir ((n203 Bool) (n166 Bool) (n171 Bool) (n158 Bool) (n150 Bool)) Bool (and (and n203 n150) (not (and (not (and n171 n166)) (not (and n158 n150)))))) (synth-fun skel ((n203 Bool) (n166 Bool) (n171 Bool) (n158 Bool) (n150 Bool)) Bool) (declare-var n203 Bool) (declare-var n166 Bool) (declare-var n171 Bool) (declare-var n158 Bool) (declare-var n150 Bool) (constraint (= (origCir n203 n166 n171 n158 n150) (skel n203 n166 n171 n158 n150))) (check-synth)
